
Starting CP-SAT solver v9.14.6206
Parameters: log_search_progress: true relative_gap_limit: 0
Setting number of workers to 20

Initial optimization model '': (model_fingerprint: 0x8299347951df73dc)
#Variables: 201 (#ints: 1 in objective) (200 primary variables)
  - 201 in [0,5109]
#kInterval: 100
#kLinear1: 10
#kLinear2: 100
#kNoOverlap: 10 (#intervals: 100)

Starting presolve at 0.00s
  5.41e-05s  0.00e+00d  [DetectDominanceRelations] 
  1.09e-03s  0.00e+00d  [operations_research::sat::CpModelPresolver::PresolveToFixPoint] #num_loops=10 #num_dual_strengthening=1 
  6.20e-06s  0.00e+00d  [operations_research::sat::CpModelPresolver::ExtractEncodingFromLinear] 
  2.19e-05s  0.00e+00d  [operations_research::sat::CpModelPresolver::DetectDuplicateColumns] 
  5.64e-05s  0.00e+00d  [operations_research::sat::CpModelPresolver::DetectDuplicateConstraints] 
[Symmetry] Graph for symmetry has 502 nodes and 491 arcs.
[Symmetry] Symmetry computation done. time: 3.93e-05 dtime: 4.668e-05
  4.43e-05s  0.00e+00d  [operations_research::sat::CpModelPresolver::DetectDuplicateConstraintsWithDifferentEnforcements] 
  4.78e-04s  1.51e-06d  [operations_research::sat::CpModelPresolver::Probe] 
  8.80e-06s  0.00e+00d  [MaxClique] 
  3.92e-05s  0.00e+00d  [DetectDominanceRelations] 
  2.21e-04s  0.00e+00d  [operations_research::sat::CpModelPresolver::PresolveToFixPoint] #num_loops=1 #num_dual_strengthening=1 
  2.41e-05s  0.00e+00d  [operations_research::sat::CpModelPresolver::ProcessAtMostOneAndLinear] 
  3.76e-05s  0.00e+00d  [operations_research::sat::CpModelPresolver::DetectDuplicateConstraints] 
  3.49e-05s  0.00e+00d  [operations_research::sat::CpModelPresolver::DetectDuplicateConstraintsWithDifferentEnforcements] 
  2.68e-05s  6.00e-07d  [operations_research::sat::CpModelPresolver::DetectDominatedLinearConstraints] #relevant_constraints=100 
  2.12e-05s  0.00e+00d  [operations_research::sat::CpModelPresolver::DetectDifferentVariables] 
  2.50e-06s  0.00e+00d  [operations_research::sat::CpModelPresolver::ProcessSetPPC] 
  3.90e-06s  0.00e+00d  [operations_research::sat::CpModelPresolver::FindAlmostIdenticalLinearConstraints] 
  6.50e-06s  0.00e+00d  [operations_research::sat::CpModelPresolver::FindBigAtMostOneAndLinearOverlap] 
  1.84e-05s  3.60e-06d  [operations_research::sat::CpModelPresolver::FindBigVerticalLinearOverlap] 
  2.70e-06s  0.00e+00d  [operations_research::sat::CpModelPresolver::FindBigHorizontalLinearOverlap] 
  4.20e-06s  0.00e+00d  [operations_research::sat::CpModelPresolver::MergeClauses] 
  2.76e-05s  0.00e+00d  [DetectDominanceRelations] 
  1.78e-04s  0.00e+00d  [operations_research::sat::CpModelPresolver::PresolveToFixPoint] #num_loops=1 #num_dual_strengthening=1 
  2.87e-05s  0.00e+00d  [DetectDominanceRelations] 
  1.80e-04s  0.00e+00d  [operations_research::sat::CpModelPresolver::PresolveToFixPoint] #num_loops=1 #num_dual_strengthening=1 
  9.20e-06s  0.00e+00d  [operations_research::sat::CpModelPresolver::DetectDuplicateColumns] 
  3.84e-05s  0.00e+00d  [operations_research::sat::CpModelPresolver::DetectDuplicateConstraints] 
[Symmetry] Graph for symmetry has 502 nodes and 491 arcs.
[Symmetry] Symmetry computation done. time: 2.61e-05 dtime: 4.668e-05
  3.84e-05s  0.00e+00d  [operations_research::sat::CpModelPresolver::DetectDuplicateConstraintsWithDifferentEnforcements] 
  3.19e-04s  1.51e-06d  [operations_research::sat::CpModelPresolver::Probe] 
  2.60e-06s  0.00e+00d  [MaxClique] 
  3.09e-05s  0.00e+00d  [DetectDominanceRelations] 
  2.05e-04s  0.00e+00d  [operations_research::sat::CpModelPresolver::PresolveToFixPoint] #num_loops=1 #num_dual_strengthening=1 
  2.15e-05s  0.00e+00d  [operations_research::sat::CpModelPresolver::ProcessAtMostOneAndLinear] 
  4.04e-05s  0.00e+00d  [operations_research::sat::CpModelPresolver::DetectDuplicateConstraints] 
  3.60e-05s  0.00e+00d  [operations_research::sat::CpModelPresolver::DetectDuplicateConstraintsWithDifferentEnforcements] 
  2.11e-05s  6.00e-07d  [operations_research::sat::CpModelPresolver::DetectDominatedLinearConstraints] #relevant_constraints=100 
  1.87e-05s  0.00e+00d  [operations_research::sat::CpModelPresolver::DetectDifferentVariables] 
  3.10e-06s  0.00e+00d  [operations_research::sat::CpModelPresolver::ProcessSetPPC] 
  2.80e-06s  0.00e+00d  [operations_research::sat::CpModelPresolver::FindAlmostIdenticalLinearConstraints] 
  6.20e-06s  0.00e+00d  [operations_research::sat::CpModelPresolver::FindBigAtMostOneAndLinearOverlap] 
  1.58e-05s  3.60e-06d  [operations_research::sat::CpModelPresolver::FindBigVerticalLinearOverlap] 
  1.70e-06s  0.00e+00d  [operations_research::sat::CpModelPresolver::FindBigHorizontalLinearOverlap] 
  2.90e-06s  0.00e+00d  [operations_research::sat::CpModelPresolver::MergeClauses] 
  2.96e-05s  0.00e+00d  [DetectDominanceRelations] 
  1.94e-04s  0.00e+00d  [operations_research::sat::CpModelPresolver::PresolveToFixPoint] #num_loops=1 #num_dual_strengthening=1 
  6.60e-06s  0.00e+00d  [operations_research::sat::CpModelPresolver::ExpandObjective] 

Presolve summary:
  - 100 affine relations were detected.
  - rule 'TODO dual: only one blocking constraint?' was applied 60 times.
  - rule 'TODO dual: only one unspecified blocking constraint?' was applied 6 times.
  - rule 'affine: new relation' was applied 100 times.
  - rule 'linear: always true' was applied 10 times.
  - rule 'linear: reduced variable domains' was applied 554 times.
  - rule 'linear: remapped using affine relations' was applied 200 times.
  - rule 'presolve: 0 unused variables removed.' was applied 1 time.
  - rule 'presolve: iteration' was applied 2 times.

Presolved optimization model '': (model_fingerprint: 0x2570ae35fb706cbc)
#Variables: 101 (#ints: 1 in objective) (100 primary variables)
  - 101 different domains in [0,5109] with a largest complexity of 1.
#kInterval: 100
#kLinear2: 100
#kNoOverlap: 10 (#intervals: 100)
[Symmetry] Graph for symmetry has 402 nodes and 491 arcs.
[Symmetry] Symmetry computation done. time: 4.75e-05 dtime: 4.068e-05

Preloading model.
#Bound   0.01s best:inf   next:[655,5109] initial_domain
#Model   0.01s var:101/101 constraints:210/210

Starting search at 0.01s with 20 workers.
13 full problem subsolvers: [default_lp, fixed, lb_tree_search, max_lp, no_lp, objective_lb_search, objective_shaving_max_lp, objective_shaving_no_lp, probing, pseudo_costs, quick_restart, quick_restart_no_lp, reduced_costs]
7 first solution subsolvers: [fj(2), fj_lin, fs_random, fs_random_no_lp, fs_random_quick_restart, fs_random_quick_restart_no_lp]
17 interleaved subsolvers: [feasibility_pump, graph_arc_lns, graph_cst_lns, graph_dec_lns, graph_var_lns, lb_relax_lns, ls(2), ls_lin, rins/rens, rnd_cst_lns, rnd_var_lns, scheduling_intervals_lns, scheduling_precedences_lns, scheduling_resource_windows_lns, scheduling_time_window_lns, variables_shaving]
3 helper subsolvers: [neighborhood_helper, synchronization_agent, update_gap_integral]

#1       0.01s best:1108  next:[655,1107] no_lp
#Bound   0.01s best:1108  next:[808,1107] no_lp
#2       0.01s best:1104  next:[808,1103] default_lp
#3       0.02s best:1098  next:[808,1097] no_lp
#4       0.02s best:1096  next:[808,1095] quick_restart_no_lp
#5       0.03s best:1092  next:[808,1091] quick_restart_no_lp
#6       0.03s best:1076  next:[808,1075] default_lp
#7       0.03s best:1074  next:[808,1073] default_lp
#8       0.03s best:1070  next:[808,1069] default_lp
#9       0.03s best:1067  next:[808,1066] default_lp
#10      0.04s best:1024  next:[808,1023] no_lp
#Bound   0.04s best:1024  next:[814,1023] objective_shaving_no_lp (vars=100 csts=200)
#11      0.05s best:994   next:[814,993]  graph_cst_lns (d=7.07e-01 s=43 t=0.10 p=1.00 stall=0 h=base)
#Bound   0.06s best:994   next:[829,993]  objective_lb_search
#Bound   0.06s best:994   next:[834,993]  objective_lb_search
#Bound   0.06s best:994   next:[835,993]  objective_lb_search
#Bound   0.06s best:994   next:[836,993]  objective_lb_search
#Bound   0.06s best:994   next:[841,993]  objective_lb_search
#Bound   0.06s best:994   next:[844,993]  objective_lb_search
#Bound   0.06s best:994   next:[863,993]  objective_lb_search
#Bound   0.06s best:994   next:[864,993]  objective_lb_search
#Bound   0.06s best:994   next:[865,993]  objective_lb_search
#12      0.06s best:990   next:[865,989]  graph_var_lns (d=7.07e-01 s=41 t=0.10 p=1.00 stall=0 h=base)
#13      0.06s best:989   next:[865,988]  quick_restart_no_lp
#14      0.07s best:983   next:[865,982]  quick_restart_no_lp
#15      0.08s best:982   next:[865,981]  quick_restart_no_lp
#16      0.08s best:977   next:[865,976]  quick_restart
#17      0.09s best:976   next:[865,975]  quick_restart
#Bound   0.10s best:976   next:[867,975]  objective_shaving_max_lp (vars=100 csts=200)
#18      0.11s best:975   next:[867,974]  quick_restart_no_lp
#19      0.11s best:974   next:[867,973]  quick_restart_no_lp
#20      0.11s best:971   next:[867,970]  graph_var_lns (d=8.14e-01 s=58 t=0.10 p=1.00 stall=0 h=base)
#21      0.12s best:970   next:[867,969]  quick_restart
#22      0.12s best:967   next:[867,966]  quick_restart_no_lp
#Bound   0.12s best:967   next:[870,966]  objective_lb_search
#23      0.13s best:956   next:[870,955]  scheduling_precedences_lns (d=8.14e-01 s=64 t=0.10 p=1.00 stall=0 h=base)
#Bound   0.14s best:956   next:[871,955]  reduced_costs
#Bound   0.16s best:956   next:[872,955]  reduced_costs
#24      0.16s best:951   next:[872,950]  scheduling_time_window_lns (d=5.00e-01 s=66 t=0.10 p=0.00 stall=0 h=base)
#Bound   0.17s best:951   next:[873,950]  reduced_costs
#Bound   0.19s best:951   next:[874,950]  reduced_costs
#Bound   0.27s best:951   next:[875,950]  reduced_costs
#Bound   0.29s best:951   next:[876,950]  reduced_costs
#Bound   0.31s best:951   next:[877,950]  reduced_costs
#25      0.32s best:930   next:[877,929]  rnd_cst_lns (d=9.39e-01 s=98 t=0.10 p=1.00 stall=0 h=base)
#Bound   0.93s best:930   next:[891,929]  reduced_costs [skipped_logs=13]
#Bound   1.95s best:930   next:[902,929]  reduced_costs [skipped_logs=10]
#Done    2.36s no_lp
#Done    2.36s probing
#Bound   2.35s best:930   next:[911,929]  no_lp [skipped_logs=8]

Task timing                                  n [     min,      max]      avg      dev     time         n [     min,      max]      avg      dev    dtime
                       'default_lp':         1 [   2.35s,    2.35s]    2.35s   0.00ns    2.35s         1 [504.44ms, 504.44ms] 504.44ms   0.00ns 504.44ms
                 'feasibility_pump':        14 [ 67.90us,   1.50ms] 217.53us 382.32us   3.05ms        13 [ 13.78us,  73.96us]  18.41us  16.04us 239.27us
                            'fixed':         1 [   2.35s,    2.35s]    2.35s   0.00ns    2.35s         1 [293.66ms, 293.66ms] 293.66ms   0.00ns 293.66ms
                               'fj':         0 [  0.00ns,   0.00ns]   0.00ns   0.00ns   0.00ns         0 [  0.00ns,   0.00ns]   0.00ns   0.00ns   0.00ns
                               'fj':         1 [ 91.06ms,  91.06ms]  91.06ms   0.00ns  91.06ms         1 [100.03ms, 100.03ms] 100.03ms   0.00ns 100.03ms
                           'fj_lin':         0 [  0.00ns,   0.00ns]   0.00ns   0.00ns   0.00ns         0 [  0.00ns,   0.00ns]   0.00ns   0.00ns   0.00ns
                        'fs_random':         1 [363.90us, 363.90us] 363.90us   0.00ns 363.90us         0 [  0.00ns,   0.00ns]   0.00ns   0.00ns   0.00ns
                  'fs_random_no_lp':         1 [119.90us, 119.90us] 119.90us   0.00ns 119.90us         0 [  0.00ns,   0.00ns]   0.00ns   0.00ns   0.00ns
          'fs_random_quick_restart':         1 [300.70us, 300.70us] 300.70us   0.00ns 300.70us         0 [  0.00ns,   0.00ns]   0.00ns   0.00ns   0.00ns
    'fs_random_quick_restart_no_lp':         1 [342.30us, 342.30us] 342.30us   0.00ns 342.30us         0 [  0.00ns,   0.00ns]   0.00ns   0.00ns   0.00ns
                    'graph_arc_lns':        10 [  2.96ms, 922.71ms] 154.52ms 281.42ms    1.55s        10 [ 11.86us, 100.05ms]  15.70ms  30.36ms 156.96ms
                    'graph_cst_lns':        11 [  3.76ms, 697.01ms] 121.34ms 209.57ms    1.33s        11 [  5.73us,  72.32ms]  11.95ms  21.70ms 131.48ms
                    'graph_dec_lns':        11 [362.70us, 764.69ms] 125.35ms 248.79ms    1.38s         9 [  3.93us,  84.78ms]  16.22ms  29.45ms 146.01ms
                    'graph_var_lns':        10 [  5.13ms, 912.86ms] 141.03ms 267.63ms    1.41s        10 [  4.54us, 100.09ms]  14.75ms  29.45ms 147.50ms
                     'lb_relax_lns':         8 [144.60us,    1.64s] 218.30ms 537.15ms    1.75s         6 [635.64us, 190.27ms]  33.41ms  70.16ms 200.49ms
                   'lb_tree_search':         1 [   2.35s,    2.35s]    2.35s   0.00ns    2.35s         1 [351.44ms, 351.44ms] 351.44ms   0.00ns 351.44ms
                               'ls':        14 [ 35.14ms, 113.50ms]  89.80ms  19.82ms    1.26s        14 [ 44.21ms, 100.04ms]  93.22ms  16.93ms    1.31s
                               'ls':        14 [ 51.77ms, 125.05ms]  92.51ms  14.95ms    1.30s        14 [ 45.79ms, 100.04ms]  96.14ms  13.97ms    1.35s
                           'ls_lin':        13 [ 75.22ms, 121.09ms]  99.81ms  13.94ms    1.30s        13 [ 84.93ms, 100.02ms]  98.45ms   4.14ms    1.28s
                           'max_lp':         1 [   2.35s,    2.35s]    2.35s   0.00ns    2.35s         1 [349.86ms, 349.86ms] 349.86ms   0.00ns 349.86ms
                            'no_lp':         1 [   2.35s,    2.35s]    2.35s   0.00ns    2.35s         1 [246.21ms, 246.21ms] 246.21ms   0.00ns 246.21ms
              'objective_lb_search':         1 [   2.35s,    2.35s]    2.35s   0.00ns    2.35s         1 [265.18ms, 265.18ms] 265.18ms   0.00ns 265.18ms
         'objective_shaving_max_lp':        14 [988.10us,   7.07ms]   5.85ms   1.80ms  81.84ms        13 [  3.74us,  62.02us]  20.77us  13.55us 269.99us
          'objective_shaving_no_lp':        14 [900.90us,   6.96ms]   5.87ms   1.41ms  82.19ms        13 [ 12.27us,  40.71us]  21.85us   8.60us 284.09us
                          'probing':         1 [   2.35s,    2.35s]    2.35s   0.00ns    2.35s         1 [217.56ms, 217.56ms] 217.56ms   0.00ns 217.56ms
                     'pseudo_costs':         1 [   2.35s,    2.35s]    2.35s   0.00ns    2.35s         1 [441.92ms, 441.92ms] 441.92ms   0.00ns 441.92ms
                    'quick_restart':         1 [   2.35s,    2.35s]    2.35s   0.00ns    2.35s         1 [284.00ms, 284.00ms] 284.00ms   0.00ns 284.00ms
              'quick_restart_no_lp':         1 [   2.35s,    2.35s]    2.35s   0.00ns    2.35s         1 [337.86ms, 337.86ms] 337.86ms   0.00ns 337.86ms
                    'reduced_costs':         1 [   2.35s,    2.35s]    2.35s   0.00ns    2.35s         1 [279.74ms, 279.74ms] 279.74ms   0.00ns 279.74ms
                        'rins/rens':        14 [ 34.50us, 274.57ms]  50.14ms  85.00ms 701.91ms         9 [ 14.73us,  27.59ms]   7.26ms   9.38ms  65.31ms
                      'rnd_cst_lns':        10 [  3.36ms, 928.96ms] 169.10ms 291.37ms    1.69s        10 [  4.52us, 100.01ms]  17.07ms  30.98ms 170.70ms
                      'rnd_var_lns':        11 [  2.64ms, 728.61ms] 123.99ms 204.30ms    1.36s        11 [  7.40us,  77.89ms]  12.20ms  21.84ms 134.25ms
         'scheduling_intervals_lns':         4 [ 34.57ms, 948.30ms] 362.42ms 357.55ms    1.45s         4 [  1.53ms, 100.06ms]  35.98ms  38.59ms 143.90ms
       'scheduling_precedences_lns':         5 [ 18.02ms,    1.02s] 305.04ms 391.10ms    1.53s         5 [603.00us, 100.06ms]  30.77ms  39.38ms 153.86ms
  'scheduling_resource_windows_lns':        14 [  1.47ms,  10.09ms]   6.28ms   2.63ms  87.87ms        11 [ 25.01us, 165.69us]  43.89us  39.18us 482.75us
       'scheduling_time_window_lns':         5 [ 44.05ms, 934.10ms] 277.44ms 330.74ms    1.39s         5 [  1.98ms, 100.01ms]  27.08ms  36.71ms 135.40ms
                'variables_shaving':         4 [ 19.20ms, 735.62ms] 337.91ms 297.70ms    1.35s         4 [348.54us, 100.05ms]  44.46ms  41.72ms 177.84ms

Search stats                        Bools  Conflicts  Branches  Restarts  BoolPropag  IntegerPropag
                     'default_lp':  3'254      5'783    19'287     3'078   2'917'629      1'550'125
                          'fixed':  1'122      6'541    10'467       205     979'415        995'133
                      'fs_random':      0          0         0         0           0              0
                'fs_random_no_lp':      0          0         0         0           0              0
        'fs_random_quick_restart':      0          0         0         0           0              0
  'fs_random_quick_restart_no_lp':      0          0         0         0           0              0
                 'lb_tree_search':    450        816    10'740     2'821     249'407        464'692
                         'max_lp':  1'374      2'206    20'161     1'659     613'757        711'702
                          'no_lp':    358      5'398    17'138     2'142     294'943      1'474'479
            'objective_lb_search':  1'515      4'916    13'259       791     892'576      1'227'500
                        'probing':    807      2'287    11'668     5'495     468'622        758'663
                   'pseudo_costs':  2'524      4'086    23'063     1'156   1'567'054        835'697
                  'quick_restart':  1'870      3'217    16'756     1'819   1'072'783      1'308'284
            'quick_restart_no_lp':  2'080      3'473    20'536     2'127   1'468'177      1'481'644
                  'reduced_costs':    493        770    13'183     5'374     190'031        360'647

SAT stats                           ClassicMinim  LitRemoved  LitLearned  LitForgotten  Subsumed  MClauses  MDecisions  MLitTrue  MSubsumed  MLitRemoved  MReused
                     'default_lp':         5'271      32'700      28'142             0        22     2'885       5'928         1      1'952        8'759      717
                          'fixed':         5'332      19'528     114'271             0        45         0           0         0          0            0        0
                      'fs_random':             0           0           0             0         0         0           0         0          0            0        0
                'fs_random_no_lp':             0           0           0             0         0         0           0         0          0            0        0
        'fs_random_quick_restart':             0           0           0             0         0         0           0         0          0            0        0
  'fs_random_quick_restart_no_lp':             0           0           0             0         0         0           0         0          0            0        0
                 'lb_tree_search':           617       4'571       8'654             0        23       412       1'228         4        111          636       34
                         'max_lp':         1'733       5'249      13'305             0        23     1'064       2'246         1        317        1'536      766
                          'no_lp':         4'891      24'272      48'337             0        99     1'216       3'978        31        559        3'241      216
            'objective_lb_search':         3'855      11'149      27'557             0        40     1'102       2'009         0        271        1'254    1'510
                        'probing':         1'837      17'002      22'605             0        26       394       2'180        10        245        2'427       25
                   'pseudo_costs':         3'706      18'609      30'767             0         6       912       1'249         0        359        1'655    1'218
                  'quick_restart':         2'579      12'894      22'918             0        10       925       2'313        11        365        1'773      297
            'quick_restart_no_lp':         2'952      15'274      28'878             0        20     1'225       3'160        52        508        2'554      214
                  'reduced_costs':           552       4'410       3'037             0        16         0           0         0          0            0        0

Lp stats                  Component  Iterations  AddedCuts  OPTIMAL  DUAL_F.  DUAL_U.
           'default_lp':          1           0          0   12'896        0        0
                'fixed':          1           0          0   39'406        0        0
       'lb_tree_search':          1      23'061        585    8'247      526        0
               'max_lp':          1      17'572      1'128    7'711      398        0
  'objective_lb_search':          1           0          0   26'001        0        0
              'probing':          1           0          0   21'241        0        0
         'pseudo_costs':          1      14'359      1'066    8'924      259        0
        'quick_restart':          1           0          0   17'309        0        0
        'reduced_costs':          1      13'454      1'410    3'300      354        0

Lp dimension              Final dimension of first component
           'default_lp':      0 rows, 101 columns, 0 entries
                'fixed':      0 rows, 101 columns, 0 entries
       'lb_tree_search':  178 rows, 101 columns, 531 entries
               'max_lp':  140 rows, 101 columns, 383 entries
  'objective_lb_search':      0 rows, 101 columns, 0 entries
              'probing':      0 rows, 101 columns, 0 entries
         'pseudo_costs':  193 rows, 101 columns, 547 entries
        'quick_restart':      0 rows, 101 columns, 0 entries
        'reduced_costs':  205 rows, 101 columns, 598 entries

Lp debug                  CutPropag  CutEqPropag  Adjust  Overflow     Bad  BadScaling
           'default_lp':          0            0       0         0       0           0
                'fixed':          0            0       0         0       0           0
       'lb_tree_search':          0            1       0         0   4'976           0
               'max_lp':          0           11       0         0   4'578           0
  'objective_lb_search':          0            0       0         0       0           0
              'probing':          0            0       0         0       0           0
         'pseudo_costs':          0           30       0         0   2'688           0
        'quick_restart':          0            0       0         0       0           0
        'reduced_costs':          0           61       0         0  20'606           0

Lp pool                   Constraints  Updates  Simplif  Merged  Shortened  Split  Strenghtened    Cuts/Call
           'default_lp':          100        0        6       0          0      0             0          0/0
                'fixed':          100        0        0       0          0      0             0          0/0
       'lb_tree_search':          666      613      230      19          0      0             6      585/916
               'max_lp':        1'013      500    2'274     215          0      1             9  1'128/1'825
  'objective_lb_search':          100        0        6       0          0      0             0          0/0
              'probing':          100        0        0       0          0      0             0          0/0
         'pseudo_costs':          988      412    1'726     178          0      0            13  1'066/1'578
        'quick_restart':          100        0       15       0          0      0             0          0/0
        'reduced_costs':        1'457    1'259    9'860      53          0     10            88  1'410/2'527

Lp Cut                                                max_lp  reduced_costs  pseudo_costs  lb_tree_search
                                              CG_FF:       -              3             5               2
                                               CG_K:      15             44            15               7
                                               CG_R:      26             51            33              22
                                            MIR_1_K:       4              7             4               -
                                            MIR_1_R:       8             19             9               1
                                           MIR_2_FF:       -              -             1               -
                                            MIR_2_K:       1              7             -               -
                                            MIR_2_R:       1              5             2               2
                                            MIR_3_K:       -              3             -               -
                                            MIR_3_R:       -              4             1               1
                                            MIR_4_K:       2              -             -               -
                                            MIR_4_R:       -              3             1               -
                                            MIR_5_K:       1              3             1               -
                                            MIR_5_R:       -              4             -               1
                                            MIR_6_K:       -              2             -               -
                                            MIR_6_R:       2              1             1               1
                  NoOverlapCompletionTimeExhaustive:      78            111            77              41
           NoOverlapCompletionTimeExhaustive_lifted:      47             68            51               9
  NoOverlapCompletionTimeExhaustive_lifted_weighted:     138            147           105              72
         NoOverlapCompletionTimeExhaustive_weighted:     152            226           136              80
                    NoOverlapCompletionTimeQueyrane:      96            112            94              64
             NoOverlapCompletionTimeQueyrane_lifted:     142            151           141              64
                        NoOverlapDetectedPrecedence:      43             66            50              35
                          NoOverlapDisjunctionOnEnd:     103            180            87              68
                        NoOverlapDisjunctionOnStart:     254            144           240              99
                                        ZERO_HALF_R:      15             49            12              16

LNS stats                             Improv/Calls  Closed  Difficulty  TimeLimit
                    'graph_arc_lns':          9/10     90%    9.76e-01       0.10
                    'graph_cst_lns':         10/11     91%    9.82e-01       0.10
                    'graph_dec_lns':         11/11     91%    9.82e-01       0.10
                    'graph_var_lns':          9/10     90%    9.76e-01       0.10
                     'lb_relax_lns':           6/6     83%    9.16e-01       0.50
                        'rins/rens':           9/9     89%    9.68e-01       0.10
                      'rnd_cst_lns':         10/10     90%    9.76e-01       0.10
                      'rnd_var_lns':         10/11    100%    9.89e-01       0.10
         'scheduling_intervals_lns':           3/4     75%    8.21e-01       0.10
       'scheduling_precedences_lns':           5/5     80%    8.80e-01       0.10
  'scheduling_resource_windows_lns':         12/14    100%    9.95e-01       0.10
       'scheduling_time_window_lns':           5/5     60%    7.29e-01       0.10

LS stats                                    Batches  Restarts/Perturbs  LinMoves  GenMoves  CompoundMoves  Bactracks  WeightUpdates  ScoreComputed
                             'fj_restart':        1                  1         0     2'281              0          0            682        490'810
                         'ls_lin_restart':        4                  4         0     9'942              0          0          4'307      1'927'321
        'ls_lin_restart_compound_perturb':        1                  1         0    17'643              4      8'818            295        444'697
          'ls_lin_restart_decay_compound':        2                  2         0    18'417          1'868      8'257             90        940'884
  'ls_lin_restart_decay_compound_perturb':        4                  4         0    40'956          3'949     18'491            245      1'792'073
           'ls_lin_restart_decay_perturb':        2                  2         0     8'434              0          0            469        968'533
                             'ls_restart':        3                  3         0     7'240              0          0          3'276      1'462'940
                    'ls_restart_compound':        3                  3         0    48'043            497     23'761            662      1'344'328
            'ls_restart_compound_perturb':        2                  2         0    32'694            241     16'224            524        896'897
                       'ls_restart_decay':        5                  5         0    16'186              0          0          1'082      1'695'452
              'ls_restart_decay_compound':        1                  1         0     8'713            752      3'980             48        471'741
      'ls_restart_decay_compound_perturb':        2                  2         0    17'707          1'770      7'968             87        942'105
               'ls_restart_decay_perturb':        7                  6        17    30'577              0          0          1'635      3'388'570
                     'ls_restart_perturb':        5                  5         0    11'914              0          0          4'363      2'438'722

Solutions (25)                   Num     Rank
                  'default_lp':    5    [2,9]
               'graph_cst_lns':    1  [11,11]
               'graph_var_lns':    2  [12,20]
                       'no_lp':    3   [1,10]
               'quick_restart':    3  [16,21]
         'quick_restart_no_lp':    8   [4,22]
                 'rnd_cst_lns':    1  [25,25]
  'scheduling_precedences_lns':    1  [23,23]
  'scheduling_time_window_lns':    1  [24,24]

Objective bounds               Num
            'initial_domain':    1
            'lb_tree_search':    2
                     'no_lp':    2
       'objective_lb_search':   11
  'objective_shaving_max_lp':    1
   'objective_shaving_no_lp':    1
             'reduced_costs':   37

Solution repositories    Added  Queried  Synchro
  'feasible solutions':     68      279       53
   'fj solution hints':      0        0        0
        'lp solutions':     78        8       51
                'pump':     13        6

Improving bounds shared      Num  Sym
            'default_lp':    609    0
        'lb_tree_search':      7    0
                'max_lp':     35    0
                 'no_lp':    659    0
   'objective_lb_search':    116    0
               'probing':    330    0
          'pseudo_costs':     41    0
         'quick_restart':    443    0
   'quick_restart_no_lp':  1'244    0
         'reduced_costs':     68    0

CpSolverResponse summary:
status: OPTIMAL
objective: 930
best_bound: 930
integers: 101
booleans: 0
conflicts: 0
branches: 0
propagations: 0
integer_propagations: 0
restarts: 0
lp_iterations: 0
walltime: 2.37509
usertime: 2.37509
deterministic_time: 9.36787
gap_integral: 20.7904
solution_fingerprint: 0xdbc9e4649dbc9321

